
--- Job bchfcnet.gms Start 02/08/22 17:05:24 34.3.0 rac355f3 WEX-WEI x86 64bit/MS Windows
--- Applying:
    C:\GAMS\34\gmsprmNT.txt
--- GAMS Parameters defined
    Input C:\Users\dekhi\Desktop\gamsworld\FCNetLib\test\bchfcnet.gms
    PageSize 0
    ScrDir C:\Users\dekhi\Desktop\gamsworld\FCNetLib\test\225a\
    SysDir C:\GAMS\34\
    LogOption 3
    ErrMsg 1
    ErrorLog 99
    IDE 1
    ResLim 3600
    LstTitleLeftAligned 1
Licensee: Eval License                                   S211214|0002AW-GEN
          Ostfalia Hochschule fuer angewandte Wissenschaften        DCE1645
          C:\Users\dekhi\Documents\GAMS\gamslice.txt
          License Admin: Mohamed Ali Dekhil, dekhil.medali@gmail.com       
          Evaluation license: Not for commercial or production use
GAMS 34.3.0   Copyright (C) 1987-2021 GAMS Development. All rights reserved
--- Starting compilation
--- bchfcnet.gms(34) 2 Mb
--- . decl.gms(15) 2 Mb
--- bchfcnet.gms(38) 2 Mb
--- . k10x90.inc(216) 3 Mb
--- bchfcnet.gms(67) 3 Mb
--- . equs.gms(20) 3 Mb
--- bchfcnet.gms(97) 3 Mb
--- call rm -f bchout_i.gdx startcut.txt startheur.txt cuthist.gdx agap.txt rgap.txt cntfail.txt
--- bchfcnet.gms(118) 3 Mb
--- Starting execution: elapsed 0:00:00.075
--- bchfcnet.gms(274) 4 Mb
--- GDX File (execute_unload) C:\Users\dekhi\Desktop\gamsworld\FCNetLib\test\net.gdx
--- bchfcnet.gms(365) 4 Mb
--- GDXin=C:\Users\dekhi\Desktop\gamsworld\FCNetLib\test\points\k10x90.gdx
--- GDX File (execute_load) C:\Users\dekhi\Desktop\gamsworld\FCNetLib\test\points\k10x90.gdx
--- Generating MIP model master
--- bchfcnet.gms(369) 4 Mb
---   101 rows  181 columns  541 non-zeroes
---   90 discrete-columns
--- Executing CPLEX (Solvelink=2): elapsed 0:00:00.101

IBM ILOG CPLEX   34.3.0 rac355f3 Released Feb 25, 2021 WEI x86 64bit/MS Window

--- GAMS/Cplex Link licensed for continuous and discrete problems.

Reading parameter(s) from "C:\Users\dekhi\Desktop\gamsworld\FCNetLib\test\cplex.op2"
>>  mipstart 1
Finished reading from "C:\Users\dekhi\Desktop\gamsworld\FCNetLib\test\cplex.op2"

--- GMO memory 0.53 Mb (peak 0.53 Mb)
--- Dictionary memory 0.00 Mb
--- Cplex 20.1.0.0 link memory 0.00 Mb (peak 0.02 Mb)
--- Starting Cplex

Version identifier: 20.1.0.0 | 2020-11-10 | 9bedb6d68
CPXPARAM_Threads                                 1
CPXPARAM_MIP_Display                             4
CPXPARAM_TimeLimit                               3600
CPXPARAM_MIP_Tolerances_AbsMIPGap                0
CPXPARAM_MIP_Tolerances_MIPGap                   0
Generic callback                                 0x50
Processing 1 MIP starts.
MIP start 'm1' defined solution with objective 568.0000.
1 of 1 MIP starts provided solutions.
MIP start 'm1' defined initial solution with objective 568.0000.
Tried aggregator 1 time.
MIP Presolve eliminated 9 rows and 1 columns.
MIP Presolve added 18 rows and 0 columns.
Reduced MIP has 109 rows, 180 columns, and 378 nonzeros.
Reduced MIP has 90 binaries, 0 generals, 0 SOSs, and 0 indicators.
Presolve time = 0.00 sec. (0.26 ticks)
Probing time = 0.00 sec. (0.02 ticks)
Tried aggregator 1 time.
Detecting symmetries...
Reduced MIP has 109 rows, 180 columns, and 378 nonzeros.
Reduced MIP has 90 binaries, 0 generals, 0 SOSs, and 0 indicators.
Presolve time = 0.00 sec. (0.29 ticks)
Probing time = 0.00 sec. (0.02 ticks)
MIP emphasis: balance optimality and feasibility.
MIP search method: dynamic search.
Parallel mode: none, using 1 thread.
Tried aggregator 1 time.
LP Presolve eliminated 81 rows and 81 columns.
Aggregator did 9 substitutions.
Reduced LP has 19 rows, 90 columns, and 198 nonzeros.
Presolve time = 0.00 sec. (0.09 ticks)

Iteration log . . .
Iteration:     1   Dual objective     =            71.740000
Initializing dual steep norms . . .
Root relaxation solution time = 0.00 sec. (0.17 ticks)

        Nodes                                         Cuts/
   Node  Left     Objective  IInf  Best Integer    Best Bound    ItCnt     Gap

*     0+    0                          568.0000        0.0000           100.00%
Found incumbent of value 568.000000 after 0.02 sec. (1.01 ticks)
      0     0      399.7300     9      568.0000      399.7300       11   29.62%
      0     0      518.1694    14      568.0000      Cuts: 56       37    8.77%
      0     0      540.1093    18      568.0000      Cuts: 52       57    4.91%
      0     0      544.1381    18      568.0000      Cuts: 46       82    4.20%
      0     0      547.0839    22      568.0000      Cuts: 40       97    3.68%
      0     0      549.7486    19      568.0000      Cuts: 53      129    3.21%
Detecting symmetries...
      0     0      553.2144    19      568.0000      Cuts: 45      159    2.60%
      0     0      554.9862    17      568.0000      Cuts: 32      172    2.29%
      0     0      557.7312    22      568.0000      Cuts: 28      198    1.81%
      0     0      558.3987    19      568.0000      Cuts: 54      219    1.69%
      0     0      558.6390    18      568.0000      Cuts: 12      228    1.65%
      0     0      559.2203    23      568.0000      Cuts: 22      247    1.55%
      0     0      559.6367    19      568.0000      Cuts: 14      261    1.47%
      0     0      559.8381    20      568.0000      Cuts: 22      273    1.44%
      0     0      560.0481    20      568.0000      Cuts: 26      281    1.40%
      0     0      560.5430    18      568.0000      Cuts: 18      296    1.31%
      0     0      560.9367    20      568.0000      Cuts: 31      312    1.24%
      0     0      561.3943    21      568.0000       Cuts: 7      326    1.16%
      0     0      561.8736    19      568.0000      Cuts: 12      344    1.08%
      0     0      561.9365    17      568.0000       Cuts: 9      351    1.07%
      0     0      562.2102    24      568.0000      Cuts: 86      373    1.02%
      0     0      562.5689    20      568.0000      Cuts: 23      392    0.96%
      0     0      562.8842    23      568.0000    MIRcuts: 5      406    0.90%
      0     0      563.3078    20      568.0000      Cuts: 23      423    0.83%
      0     0      563.3567    19      568.0000      Cuts: 16      435    0.82%
Detecting symmetries...
      0     2      563.3567    19      568.0000      563.3568      435    0.82%
Elapsed time = 0.23 sec. (110.63 ticks, tree = 0.01 MB, solutions = 1)

Cover cuts applied:  4
Implied bound cuts applied:  1
Flow cuts applied:  19
Mixed integer rounding cuts applied:  18
Flow path cuts applied:  2
Zero-half cuts applied:  5
Multi commodity flow cuts applied:  1
Gomory fractional cuts applied:  6

Root node processing (before b&c):
  Real time             =    0.23 sec. (110.63 ticks)
Sequential b&c:
  Real time             =    0.00 sec. (5.34 ticks)
                          ------------
Total (root+branch&cut) =    0.23 sec. (115.96 ticks)

--- MIP status (101): integer optimal solution.
--- Cplex Time: 0.23sec (det. 115.96 ticks)

--- Fixing integer variables and solving final LP...

Version identifier: 20.1.0.0 | 2020-11-10 | 9bedb6d68
CPXPARAM_Advance                                 2
CPXPARAM_Threads                                 1
CPXPARAM_MIP_Display                             4
CPXPARAM_TimeLimit                               3600
CPXPARAM_MIP_Tolerances_AbsMIPGap                0
CPXPARAM_MIP_Tolerances_MIPGap                   0
Tried aggregator 1 time.
LP Presolve eliminated 100 rows and 181 columns.
All rows and columns eliminated.
Presolve time = 0.00 sec. (0.06 ticks)

--- Fixed MIP status (1): optimal.
--- Cplex Time: 0.00sec (det. 0.11 ticks)


Proven optimal solution
MIP Solution:          568.000000    (636 iterations, 17 nodes)
Final Solve:           568.000000    (0 iterations)

Best possible:         568.000000
Absolute gap:            0.000000
Relative gap:            0.000000

--- Reading solution for model master
*** Status: Normal completion
--- Job bchfcnet.gms Stop 02/08/22 17:05:24 elapsed 0:00:00.377
